(set-info :source Astral)
(set-info :status unsat)

(declare-sort Loc 0)
(declare-heap (Loc Loc))

(declare-const x1 Loc)
(declare-const x2 Loc)
(declare-const x3 Loc)
(declare-const x4 Loc)
(declare-const x5 Loc)
(declare-const x6 Loc)
(declare-const x7 Loc)
(declare-const x8 Loc)
(declare-const x9 Loc)
(declare-const x10 Loc)
(declare-const x11 Loc)
(declare-const x12 Loc)
(declare-const x13 Loc)
(declare-const x14 Loc)
(declare-const x15 Loc)
(declare-const x16 Loc)
(declare-const x17 Loc)
(declare-const x18 Loc)
(declare-const x19 Loc)
(declare-const x20 Loc)
(declare-const x21 Loc)
(declare-const x22 Loc)
(declare-const x23 Loc)
(declare-const x24 Loc)
(declare-const x25 Loc)
(declare-const x26 Loc)
(declare-const x27 Loc)
(declare-const x28 Loc)
(declare-const x29 Loc)
(declare-const x30 Loc)
(declare-const x31 Loc)
(declare-const x32 Loc)
(declare-const x33 Loc)
(declare-const x34 Loc)
(declare-const x35 Loc)
(declare-const x36 Loc)
(declare-const x37 Loc)
(declare-const x38 Loc)
(declare-const x39 Loc)
(declare-const x40 Loc)
(declare-const x41 Loc)
(declare-const x42 Loc)
(declare-const x43 Loc)
(declare-const x44 Loc)
(declare-const x45 Loc)
(declare-const x46 Loc)
(declare-const x47 Loc)
(declare-const x48 Loc)
(declare-const x49 Loc)
(declare-const x50 Loc)
(declare-const x51 Loc)
(declare-const x52 Loc)
(declare-const x53 Loc)
(declare-const x54 Loc)
(declare-const x55 Loc)
(declare-const x56 Loc)
(declare-const x57 Loc)
(declare-const x58 Loc)
(declare-const x59 Loc)
(declare-const x60 Loc)
(declare-const x61 Loc)
(declare-const x62 Loc)
(declare-const x63 Loc)
(declare-const x64 Loc)
(declare-const x65 Loc)
(declare-const x66 Loc)
(declare-const x67 Loc)
(declare-const x68 Loc)
(declare-const x69 Loc)
(declare-const x70 Loc)
(declare-const x71 Loc)
(declare-const x72 Loc)
(declare-const x73 Loc)
(declare-const x74 Loc)
(declare-const x75 Loc)
(declare-const x76 Loc)
(declare-const x77 Loc)
(declare-const x78 Loc)
(declare-const x79 Loc)
(declare-const x80 Loc)
(declare-const x81 Loc)
(declare-const x82 Loc)
(declare-const x83 Loc)
(declare-const x84 Loc)
(declare-const x85 Loc)
(declare-const x86 Loc)
(declare-const x87 Loc)
(declare-const x88 Loc)
(declare-const x89 Loc)
(declare-const x90 Loc)
(declare-const x91 Loc)
(declare-const x92 Loc)
(declare-const x93 Loc)
(declare-const x94 Loc)
(declare-const x95 Loc)
(declare-const x96 Loc)
(declare-const x97 Loc)
(declare-const x98 Loc)
(declare-const x99 Loc)
(declare-const x100 Loc)
(declare-const x101 Loc)
(declare-const x102 Loc)
(declare-const x103 Loc)
(declare-const x104 Loc)
(declare-const x105 Loc)
(declare-const x106 Loc)
(declare-const x107 Loc)
(declare-const x108 Loc)
(declare-const x109 Loc)
(declare-const x110 Loc)
(declare-const x111 Loc)
(declare-const x112 Loc)
(declare-const x113 Loc)
(declare-const x114 Loc)
(declare-const x115 Loc)
(declare-const x116 Loc)
(declare-const x117 Loc)
(declare-const x118 Loc)
(declare-const x119 Loc)
(declare-const x120 Loc)
(declare-const x121 Loc)
(declare-const x122 Loc)
(declare-const x123 Loc)
(declare-const x124 Loc)
(declare-const x125 Loc)
(declare-const x126 Loc)
(declare-const x127 Loc)
(declare-const x128 Loc)
(declare-const x129 Loc)
(declare-const x130 Loc)
(declare-const x131 Loc)

(assert
  (sep
    (pto x1 x2)
    (pto x2 x3)
    (pto x3 x4)
    (pto x4 x5)
    (pto x5 x6)
    (pto x6 x7)
    (pto x7 x8)
    (pto x8 x9)
    (pto x9 x10)
    (pto x10 x11)
    (pto x11 x12)
    (pto x12 x13)
    (pto x13 x14)
    (pto x14 x15)
    (pto x15 x16)
    (pto x16 x17)
    (pto x17 x18)
    (pto x18 x19)
    (pto x19 x20)
    (pto x20 x21)
    (pto x21 x22)
    (pto x22 x23)
    (pto x23 x24)
    (pto x24 x25)
    (pto x25 x26)
    (pto x26 x27)
    (pto x27 x28)
    (pto x28 x29)
    (pto x29 x30)
    (pto x30 x31)
    (pto x31 x32)
    (pto x32 x33)
    (pto x33 x34)
    (pto x34 x35)
    (pto x35 x36)
    (pto x36 x37)
    (pto x37 x38)
    (pto x38 x39)
    (pto x39 x40)
    (pto x40 x41)
    (pto x41 x42)
    (pto x42 x43)
    (pto x43 x44)
    (pto x44 x45)
    (pto x45 x46)
    (pto x46 x47)
    (pto x47 x48)
    (pto x48 x49)
    (pto x49 x50)
    (pto x50 x51)
    (pto x51 x52)
    (pto x52 x53)
    (pto x53 x54)
    (pto x54 x55)
    (pto x55 x56)
    (pto x56 x57)
    (pto x57 x58)
    (pto x58 x59)
    (pto x59 x60)
    (pto x60 x61)
    (pto x61 x62)
    (pto x62 x63)
    (pto x63 x64)
    (pto x64 x65)
    (pto x65 x66)
    (pto x66 x67)
    (pto x67 x68)
    (pto x68 x69)
    (pto x69 x70)
    (pto x70 x71)
    (pto x71 x72)
    (pto x72 x73)
    (pto x73 x74)
    (pto x74 x75)
    (pto x75 x76)
    (pto x76 x77)
    (pto x77 x78)
    (pto x78 x79)
    (pto x79 x80)
    (pto x80 x81)
    (pto x81 x82)
    (pto x82 x83)
    (pto x83 x84)
    (pto x84 x85)
    (pto x85 x86)
    (pto x86 x87)
    (pto x87 x88)
    (pto x88 x89)
    (pto x89 x90)
    (pto x90 x91)
    (pto x91 x92)
    (pto x92 x93)
    (pto x93 x94)
    (pto x94 x95)
    (pto x95 x96)
    (pto x96 x97)
    (pto x97 x98)
    (pto x98 x99)
    (pto x99 x100)
    (pto x100 x101)
    (pto x101 x102)
    (pto x102 x103)
    (pto x103 x104)
    (pto x104 x105)
    (pto x105 x106)
    (pto x106 x107)
    (pto x107 x108)
    (pto x108 x109)
    (pto x109 x110)
    (pto x110 x111)
    (pto x111 x112)
    (pto x112 x113)
    (pto x113 x114)
    (pto x114 x115)
    (pto x115 x116)
    (pto x116 x117)
    (pto x117 x118)
    (pto x118 x119)
    (pto x119 x120)
    (pto x120 x121)
    (pto x121 x122)
    (pto x122 x123)
    (pto x123 x124)
    (pto x124 x125)
    (pto x125 x126)
    (pto x126 x127)
    (pto x127 x128)
    (pto x128 x129)
    (pto x129 x130)
    (pto x130 x131)
    (pto x131 x1)
  )
)

(assert (not (wand (pto x1 (as sep.nil Loc)) false)))
(assert (not (wand (pto x2 (as sep.nil Loc)) false)))
(assert (not (wand (pto x3 (as sep.nil Loc)) false)))
(assert (not (wand (pto x4 (as sep.nil Loc)) false)))
(assert (not (wand (pto x5 (as sep.nil Loc)) false)))
(assert (not (wand (pto x6 (as sep.nil Loc)) false)))
(assert (not (wand (pto x7 (as sep.nil Loc)) false)))
(assert (not (wand (pto x8 (as sep.nil Loc)) false)))
(assert (not (wand (pto x9 (as sep.nil Loc)) false)))
(assert (not (wand (pto x10 (as sep.nil Loc)) false)))
(assert (not (wand (pto x11 (as sep.nil Loc)) false)))
(assert (not (wand (pto x12 (as sep.nil Loc)) false)))
(assert (not (wand (pto x13 (as sep.nil Loc)) false)))
(assert (not (wand (pto x14 (as sep.nil Loc)) false)))
(assert (not (wand (pto x15 (as sep.nil Loc)) false)))
(assert (not (wand (pto x16 (as sep.nil Loc)) false)))
(assert (not (wand (pto x17 (as sep.nil Loc)) false)))
(assert (not (wand (pto x18 (as sep.nil Loc)) false)))
(assert (not (wand (pto x19 (as sep.nil Loc)) false)))
(assert (not (wand (pto x20 (as sep.nil Loc)) false)))
(assert (not (wand (pto x21 (as sep.nil Loc)) false)))
(assert (not (wand (pto x22 (as sep.nil Loc)) false)))
(assert (not (wand (pto x23 (as sep.nil Loc)) false)))
(assert (not (wand (pto x24 (as sep.nil Loc)) false)))
(assert (not (wand (pto x25 (as sep.nil Loc)) false)))
(assert (not (wand (pto x26 (as sep.nil Loc)) false)))
(assert (not (wand (pto x27 (as sep.nil Loc)) false)))
(assert (not (wand (pto x28 (as sep.nil Loc)) false)))
(assert (not (wand (pto x29 (as sep.nil Loc)) false)))
(assert (not (wand (pto x30 (as sep.nil Loc)) false)))
(assert (not (wand (pto x31 (as sep.nil Loc)) false)))
(assert (not (wand (pto x32 (as sep.nil Loc)) false)))
(assert (not (wand (pto x33 (as sep.nil Loc)) false)))
(assert (not (wand (pto x34 (as sep.nil Loc)) false)))
(assert (not (wand (pto x35 (as sep.nil Loc)) false)))
(assert (not (wand (pto x36 (as sep.nil Loc)) false)))
(assert (not (wand (pto x37 (as sep.nil Loc)) false)))
(assert (not (wand (pto x38 (as sep.nil Loc)) false)))
(assert (not (wand (pto x39 (as sep.nil Loc)) false)))
(assert (not (wand (pto x40 (as sep.nil Loc)) false)))
(assert (not (wand (pto x41 (as sep.nil Loc)) false)))
(assert (not (wand (pto x42 (as sep.nil Loc)) false)))
(assert (not (wand (pto x43 (as sep.nil Loc)) false)))
(assert (not (wand (pto x44 (as sep.nil Loc)) false)))
(assert (not (wand (pto x45 (as sep.nil Loc)) false)))
(assert (not (wand (pto x46 (as sep.nil Loc)) false)))
(assert (not (wand (pto x47 (as sep.nil Loc)) false)))
(assert (not (wand (pto x48 (as sep.nil Loc)) false)))
(assert (not (wand (pto x49 (as sep.nil Loc)) false)))
(assert (not (wand (pto x50 (as sep.nil Loc)) false)))
(assert (not (wand (pto x51 (as sep.nil Loc)) false)))
(assert (not (wand (pto x52 (as sep.nil Loc)) false)))
(assert (not (wand (pto x53 (as sep.nil Loc)) false)))
(assert (not (wand (pto x54 (as sep.nil Loc)) false)))
(assert (not (wand (pto x55 (as sep.nil Loc)) false)))
(assert (not (wand (pto x56 (as sep.nil Loc)) false)))
(assert (not (wand (pto x57 (as sep.nil Loc)) false)))
(assert (not (wand (pto x58 (as sep.nil Loc)) false)))
(assert (not (wand (pto x59 (as sep.nil Loc)) false)))
(assert (not (wand (pto x60 (as sep.nil Loc)) false)))
(assert (not (wand (pto x61 (as sep.nil Loc)) false)))
(assert (not (wand (pto x62 (as sep.nil Loc)) false)))
(assert (not (wand (pto x63 (as sep.nil Loc)) false)))
(assert (not (wand (pto x64 (as sep.nil Loc)) false)))
(assert (not (wand (pto x65 (as sep.nil Loc)) false)))
(assert (not (wand (pto x66 (as sep.nil Loc)) false)))
(assert (not (wand (pto x67 (as sep.nil Loc)) false)))
(assert (not (wand (pto x68 (as sep.nil Loc)) false)))
(assert (not (wand (pto x69 (as sep.nil Loc)) false)))
(assert (not (wand (pto x70 (as sep.nil Loc)) false)))
(assert (not (wand (pto x71 (as sep.nil Loc)) false)))
(assert (not (wand (pto x72 (as sep.nil Loc)) false)))
(assert (not (wand (pto x73 (as sep.nil Loc)) false)))
(assert (not (wand (pto x74 (as sep.nil Loc)) false)))
(assert (not (wand (pto x75 (as sep.nil Loc)) false)))
(assert (not (wand (pto x76 (as sep.nil Loc)) false)))
(assert (not (wand (pto x77 (as sep.nil Loc)) false)))
(assert (not (wand (pto x78 (as sep.nil Loc)) false)))
(assert (not (wand (pto x79 (as sep.nil Loc)) false)))
(assert (not (wand (pto x80 (as sep.nil Loc)) false)))
(assert (not (wand (pto x81 (as sep.nil Loc)) false)))
(assert (not (wand (pto x82 (as sep.nil Loc)) false)))
(assert (not (wand (pto x83 (as sep.nil Loc)) false)))
(assert (not (wand (pto x84 (as sep.nil Loc)) false)))
(assert (not (wand (pto x85 (as sep.nil Loc)) false)))
(assert (not (wand (pto x86 (as sep.nil Loc)) false)))
(assert (not (wand (pto x87 (as sep.nil Loc)) false)))
(assert (not (wand (pto x88 (as sep.nil Loc)) false)))
(assert (not (wand (pto x89 (as sep.nil Loc)) false)))
(assert (not (wand (pto x90 (as sep.nil Loc)) false)))
(assert (not (wand (pto x91 (as sep.nil Loc)) false)))
(assert (not (wand (pto x92 (as sep.nil Loc)) false)))
(assert (not (wand (pto x93 (as sep.nil Loc)) false)))
(assert (not (wand (pto x94 (as sep.nil Loc)) false)))
(assert (not (wand (pto x95 (as sep.nil Loc)) false)))
(assert (not (wand (pto x96 (as sep.nil Loc)) false)))
(assert (not (wand (pto x97 (as sep.nil Loc)) false)))
(assert (not (wand (pto x98 (as sep.nil Loc)) false)))
(assert (not (wand (pto x99 (as sep.nil Loc)) false)))
(assert (not (wand (pto x100 (as sep.nil Loc)) false)))
(assert (not (wand (pto x101 (as sep.nil Loc)) false)))
(assert (not (wand (pto x102 (as sep.nil Loc)) false)))
(assert (not (wand (pto x103 (as sep.nil Loc)) false)))
(assert (not (wand (pto x104 (as sep.nil Loc)) false)))
(assert (not (wand (pto x105 (as sep.nil Loc)) false)))
(assert (not (wand (pto x106 (as sep.nil Loc)) false)))
(assert (not (wand (pto x107 (as sep.nil Loc)) false)))
(assert (not (wand (pto x108 (as sep.nil Loc)) false)))
(assert (not (wand (pto x109 (as sep.nil Loc)) false)))
(assert (not (wand (pto x110 (as sep.nil Loc)) false)))
(assert (not (wand (pto x111 (as sep.nil Loc)) false)))
(assert (not (wand (pto x112 (as sep.nil Loc)) false)))
(assert (not (wand (pto x113 (as sep.nil Loc)) false)))
(assert (not (wand (pto x114 (as sep.nil Loc)) false)))
(assert (not (wand (pto x115 (as sep.nil Loc)) false)))
(assert (not (wand (pto x116 (as sep.nil Loc)) false)))
(assert (not (wand (pto x117 (as sep.nil Loc)) false)))
(assert (not (wand (pto x118 (as sep.nil Loc)) false)))
(assert (not (wand (pto x119 (as sep.nil Loc)) false)))
(assert (not (wand (pto x120 (as sep.nil Loc)) false)))
(assert (not (wand (pto x121 (as sep.nil Loc)) false)))
(assert (not (wand (pto x122 (as sep.nil Loc)) false)))
(assert (not (wand (pto x123 (as sep.nil Loc)) false)))
(assert (not (wand (pto x124 (as sep.nil Loc)) false)))
(assert (not (wand (pto x125 (as sep.nil Loc)) false)))
(assert (not (wand (pto x126 (as sep.nil Loc)) false)))
(assert (not (wand (pto x127 (as sep.nil Loc)) false)))
(assert (not (wand (pto x128 (as sep.nil Loc)) false)))
(assert (not (wand (pto x129 (as sep.nil Loc)) false)))
(assert (not (wand (pto x130 (as sep.nil Loc)) false)))
(assert (not (wand (pto x131 (as sep.nil Loc)) false)))

(check-sat)